p tw 15 45
1 2
1 13
1 14
1 15
1 3
1 4
2 14
2 15
2 3
2 4
2 5
11 12
11 13
11 14
12 13
12 14
12 15
13 14
13 15
14 15
3 15
3 4
3 5
3 6
4 5
4 6
4 7
5 6
5 7
5 8
6 7
6 8
6 9
7 8
7 9
7 10
8 11
8 9
8 10
9 11
9 12
9 10
10 11
10 12
10 13
